min: cmax;
x12 + x21 = 1;
x34 + x43 = 1;
x56 + x65 = 1;
33 * x12 - 33 + c1 <= c2 - 2;
33 * x21 - 33 + c2 <= c1 - 4;
33 * x34 - 33 + c3 <= c4 - 9;
33 * x43 - 33 + c4 <= c3 - 4;
33 * x56 - 33 + c5 <= c6 - 1;
33 * x65 - 33 + c6 <= c5 - 7;
x13 + x31 = 1;
x15 + x51 = 1;
x17 + x71 = 1;
x35 + x53 = 1;
x37 + x73 = 1;
x57 + x75 = 1;
x24 + x42 = 1;
x26 + x62 = 1;
x46 + x64 = 1;
33 * x13 - 33 + c1 <= c3 - 4;
33 * x31 - 33 + c3 <= c1 - 4;
33 * x15 - 33 + c1 <= c5 - 7;
33 * x51 - 33 + c5 <= c1 - 4;
33 * x17 - 33 + c1 <= c7 - 6;
33 * x71 - 33 + c7 <= c1 - 4;
33 * x35 - 33 + c3 <= c5 - 7;
33 * x53 - 33 + c5 <= c3 - 4;
33 * x37 - 33 + c3 <= c7 - 6;
33 * x73 - 33 + c7 <= c3 - 4;
33 * x57 - 33 + c5 <= c7 - 6;
33 * x75 - 33 + c7 <= c5 - 7;
33 * x24 - 33 + c2 <= c4 - 9;
33 * x42 - 33 + c4 <= c2 - 2;
33 * x26 - 33 + c2 <= c6 - 1;
33 * x62 - 33 + c6 <= c2 - 2;
33 * x46 - 33 + c4 <= c6 - 1;
33 * x64 - 33 + c6 <= c4 - 9;
c1 <= cmax;
c2 <= cmax;
c3 <= cmax;
c4 <= cmax;
c5 <= cmax;
c6 <= cmax;
c7 <= cmax;
cmax>=0;
c1>=4;
c2>=2; 
c3>=4; 
c4>=9;
c5>=7;
c6>=1;
c7>=6;
bin x12, x21, x34, x43, x56, x65, x13, x31, x15, x51, x17, x71, x35, x53, x37, x73, x57, x75, x24, x42, x26, x62, x46, x64;
